StringID   Type       x          y          demand     ReadyTime  DueDate    ServiceTime
D0         d              20.083    36.663      0.000      0.000     23.983      0.000
S0         f              20.083    36.663      0.000      0.000     23.983      0.000
S1         f              94.090    73.250      0.000      0.000     23.983      0.000
S2         f              32.070    16.400      0.000      0.000     23.983      0.000
C0         c              -1.681    25.378      0.003     17.917     18.471      0.167
C1         c              47.330     2.128      0.007     10.856     11.385      0.150
C2         c              48.179    46.394      0.008     18.793     19.413      0.133
C3         c              49.637    53.479      0.005     16.022     16.589      0.050
C4         c              11.682    77.543      0.004     11.810     12.367      0.067

Q Vehicle fuel tank capacity /124.2400/
C Vehicle load capacity /1.0400/
r fuel consumption rate /0.4186/
g inverse refueling rate /0.0067/
v average Velocity /33.7400/
gv charging speed /149.7200/

--------------------
instance_id /179/
number of clusters /7/
working_startTime (hour) /8.00/
working_endTime (hour) /21.50/
instance_endTime (hour) /23.98/
service_time_type /random/
demand_type /20_80/
instance_type /C/
instance x range /[0.0, 100.0]/
instance y range /[0.0, 100.0]/
cs_time_to_depot (hour)/[2.4468558815908588,0.6977799447540106]/
